5 15 18
777 335 649 27 763 426 211 429 862 135 22 167 11 373 784 
53700 19800 32400 31500 37000 41300 52600 9100 98000 95600 87300 86200 17000 99600 28100 30500 92500 8400 
15 16 11 0 15 
38388.8 64667.2 5166.24 16635.5 56941.4 59103.7 28329.7 6977.11 44670 48704.5 66321.8 51708.8 7516.65 40325.2 42263.6 
66936.2 51477.8 38689.8 31187.3 25697.7 30056.3 69941.3 44140.3 22337.9 65402.8 52831.9 71398.7 36516.4 69211.6 67977.9 
25915.6 79754.9 48068 61016.2 100958 87705.7 16608.7 40880.3 75245.5 82800.1 81035.4 82863.3 51486.1 67102.9 29796.8 
17727.9 37059.5 35911.7 46870 76879.8 46929.4 38106.8 30387.2 36989.9 85795.9 38418.7 89005.3 38893.2 77151.4 16248.4 
52448.5 64451.7 13670.4 1315.29 39819.7 52253.2 45500.3 21346 38556.5 43003.5 66096.1 47791.3 10072.2 41459.5 55515.2 
